NAME : mr31
COMMENT : 31-city problem (DISC)
TYPE : TSP
DIMENSION : 31
EDGE_WEIGHT_TYPE : EUC_2D
NODE_COORD_SECTION
1 29 39
2 96 47
3 78 68
4 99 9
5 21 24
6 14 53
7 91 7
8 7 10
9 8 9
10 55 33
11 9 92
12 39 84
13 67 76
14 43 47
15 5 87
16 20 28
17 45 9
18 7 15
19 30 50
20 95 31
21 29 31
22 27 1
23 41 58
24 83 72
25 51 41
26 27 17
27 35 22
28 98 77
29 19 36
30 25 39
31 70 76
EOF
